100
128
43
33
10
40
18
39
10
16
31
4
20
4
41
8
36
6
20
7
55
56
53
47
3
37
9
27
19
45
27
12
45
26
8
4
13
8
25
52
18
5
5
3
18
50
18
32
38
14
13
1
27
5
3
11
26
13
59
9
35
11
60
36
36
10
62
21
51
36
52
52
38
24
27
24
57
39
63
21
34
52
2
32
1
54
45
40
54
31
28
51
36
41
17
43
34
23
60
43
41
44